(set-info :smt-lib-version 2.6)
(set-logic LIA)
(set-info
  :source |
 Generated by PSyCO 0.1
 More info in N. P. Lopes and J. Monteiro. Weakest Precondition Synthesis for
 Compiler Optimizations, VMCAI'14.
|)
(set-info :category "industrial")
(set-info :status unsat)
(declare-fun W_S1_V6 () Bool)
(declare-fun W_S1_V4 () Bool)
(declare-fun W_S1_V2 () Bool)
(declare-fun W_S1_V3 () Bool)
(declare-fun W_S1_V1 () Bool)
(declare-fun R_S1_V6 () Bool)
(declare-fun R_S1_V4 () Bool)
(declare-fun R_S1_V5 () Bool)
(declare-fun R_S1_V2 () Bool)
(declare-fun R_S1_V3 () Bool)
(declare-fun R_S1_V1 () Bool)
(declare-fun R_E2_V1 () Bool)
(declare-fun R_E1_V6 () Bool)
(declare-fun R_E1_V4 () Bool)
(declare-fun R_E1_V5 () Bool)
(declare-fun R_E1_V2 () Bool)
(declare-fun DISJ_W_S1_R_E1 () Bool)
(declare-fun DISJ_W_S1_R_S1 () Bool)
(declare-fun R_E2_V6 () Bool)
(declare-fun R_E2_V4 () Bool)
(declare-fun R_E2_V5 () Bool)
(declare-fun R_E2_V2 () Bool)
(declare-fun DISJ_W_S1_R_E2 () Bool)
(declare-fun W_S1_V5 () Bool)
(declare-fun R_E1_V3 () Bool)
(declare-fun R_E1_V1 () Bool)
(declare-fun R_E2_V3 () Bool)
(assert
 (let
 (($x62538
   (forall
    ((V2_0 Int) (V5_0 Int) 
     (V4_0 Int) (V6_0 Int) 
     (MW_S1_V1 Bool) (MW_S1_V3 Bool) 
     (MW_S1_V2 Bool) (MW_S1_V5 Bool) 
     (MW_S1_V4 Bool) (MW_S1_V6 Bool) 
     (S1_V1_!5249 Int) (S1_V1_!5255 Int) 
     (S1_V1_!5264 Int) (S1_V1_!5270 Int) 
     (S1_V3_!5250 Int) (S1_V3_!5256 Int) 
     (S1_V3_!5265 Int) (S1_V3_!5271 Int) 
     (S1_V2_!5251 Int) (S1_V2_!5257 Int) 
     (S1_V2_!5266 Int) (S1_V2_!5272 Int) 
     (E1_!5246 Int) (E1_!5261 Int) 
     (E1_!5263 Int) (S1_V5_!5252 Int) 
     (S1_V5_!5258 Int) (S1_V5_!5267 Int) 
     (S1_V5_!5273 Int) (E2_!5247 Int) 
     (E2_!5248 Int) (E2_!5262 Int) 
     (S1_V4_!5253 Int) (S1_V4_!5259 Int) 
     (S1_V4_!5268 Int) (S1_V4_!5274 Int) 
     (S1_V6_!5254 Int) (S1_V6_!5260 Int) 
     (S1_V6_!5269 Int) (S1_V6_!5275 Int))
    (let
    (($x62927
      (= (ite MW_S1_V6 S1_V6_!5260 V6_0) (ite MW_S1_V6 S1_V6_!5275 V6_0))))
    (let ((?x60924 (ite MW_S1_V4 S1_V4_!5274 V4_0)))
    (let ((?x62674 (ite MW_S1_V4 S1_V4_!5259 V4_0)))
    (let (($x60915 (= ?x62674 ?x60924)))
    (let
    (($x60990
      (= (ite MW_S1_V5 S1_V5_!5258 V5_0) (ite MW_S1_V5 S1_V5_!5273 V5_0))))
    (let ((?x61234 (ite MW_S1_V2 S1_V2_!5272 V2_0)))
    (let ((?x59988 (ite MW_S1_V2 S1_V2_!5257 V2_0)))
    (let (($x62774 (= ?x59988 ?x61234)))
    (let ((?x61395 (ite MW_S1_V3 S1_V3_!5271 E2_!5262)))
    (let ((?x62637 (ite MW_S1_V3 S1_V3_!5250 E2_!5248)))
    (let ((?x62911 (+ 1 ?x62637)))
    (let ((?x62350 (ite MW_S1_V3 S1_V3_!5256 ?x62911)))
    (let (($x61237 (= ?x62350 ?x61395)))
    (let ((?x60249 (ite MW_S1_V1 S1_V1_!5264 E1_!5263)))
    (let ((?x62798 (+ 1 ?x60249)))
    (let ((?x62339 (ite MW_S1_V1 S1_V1_!5270 ?x62798)))
    (let ((?x62715 (ite MW_S1_V1 S1_V1_!5255 E1_!5246)))
    (let (($x62389 (= ?x62715 ?x62339)))
    (let
    (($x62332
      (and (not (<= V4_0 E2_!5247)) 
      (not (<= V2_0 E1_!5246)) 
      (not (<= V4_0 E2_!5248))
      (not (<= (ite MW_S1_V4 S1_V4_!5253 V4_0) ?x62911))
      (>= ?x62350 (+ (- 1) ?x62674)) 
      (>= ?x62715 (+ (- 1) ?x59988)) 
      (not (<= V2_0 E1_!5261)) 
      (not (<= V4_0 E2_!5262)) 
      (not (<= V2_0 E1_!5263))
      (not (<= (ite MW_S1_V2 S1_V2_!5266 V2_0) ?x62798))
      (>= ?x62339 (+ (- 1) ?x61234)) 
      (>= ?x61395 (+ (- 1) ?x60924)))))
    (let (($x62943 (or (not MW_S1_V6) W_S1_V6)))
    (let (($x62836 (or (not MW_S1_V4) W_S1_V4)))
    (let (($x61024 (or (not MW_S1_V2) W_S1_V2)))
    (let (($x61046 (or (not MW_S1_V3) W_S1_V3)))
    (let (($x61021 (or (not MW_S1_V1) W_S1_V1)))
    (let (($x61112 (= S1_V6_!5269 S1_V6_!5275)))
    (let (($x207 (not R_S1_V6)))
    (let (($x61439 (or $x207 (= V6_0 (ite MW_S1_V6 S1_V6_!5269 V6_0)))))
    (let (($x205 (not R_S1_V4)))
    (let (($x61066 (or $x205 (= V4_0 (ite MW_S1_V4 S1_V4_!5268 V4_0)))))
    (let (($x203 (not R_S1_V5)))
    (let (($x62427 (or $x203 (= V5_0 (ite MW_S1_V5 S1_V5_!5267 V5_0)))))
    (let (($x201 (not R_S1_V2)))
    (let (($x59932 (or $x201 (= V2_0 (ite MW_S1_V2 S1_V2_!5266 V2_0)))))
    (let (($x199 (not R_S1_V3)))
    (let
    (($x61200 (or $x199 (= E2_!5262 (ite MW_S1_V3 S1_V3_!5265 E2_!5262)))))
    (let
    (($x61075
      (not
      (and (or (not R_S1_V1) (= E1_!5263 ?x62798)) $x61200 $x59932 $x62427
      $x61066 $x61439))))
    (let (($x62816 (= S1_V6_!5260 S1_V6_!5275)))
    (let
    (($x61224
      (or $x207
      (= (ite MW_S1_V6 S1_V6_!5254 V6_0) (ite MW_S1_V6 S1_V6_!5269 V6_0)))))
    (let
    (($x60925
      (or $x205
      (= (ite MW_S1_V4 S1_V4_!5253 V4_0) (ite MW_S1_V4 S1_V4_!5268 V4_0)))))
    (let
    (($x60237
      (or $x203
      (= (ite MW_S1_V5 S1_V5_!5252 V5_0) (ite MW_S1_V5 S1_V5_!5267 V5_0)))))
    (let
    (($x62472
      (or $x201
      (= (ite MW_S1_V2 S1_V2_!5251 V2_0) (ite MW_S1_V2 S1_V2_!5266 V2_0)))))
    (let
    (($x60943
      (and (or (not R_S1_V1) (= (ite MW_S1_V1 S1_V1_!5249 E1_!5246) ?x62798))
      (or $x199 (= ?x62637 (+ (- 1) (ite MW_S1_V3 S1_V3_!5265 E2_!5262))))
      $x62472 $x60237 $x60925 $x61224)))
    (let (($x62686 (not $x60943)))
    (let (($x59884 (= S1_V6_!5260 S1_V6_!5269)))
    (let (($x59984 (or $x207 (= (ite MW_S1_V6 S1_V6_!5254 V6_0) V6_0))))
    (let (($x62334 (or $x205 (= (ite MW_S1_V4 S1_V4_!5253 V4_0) V4_0))))
    (let (($x61239 (or $x203 (= (ite MW_S1_V5 S1_V5_!5252 V5_0) V5_0))))
    (let (($x62253 (or $x201 (= (ite MW_S1_V2 S1_V2_!5251 V2_0) V2_0))))
    (let (($x197 (not R_S1_V1)))
    (let
    (($x62415 (or $x197 (= (ite MW_S1_V1 S1_V1_!5249 E1_!5246) E1_!5263))))
    (let
    (($x62901
      (not
      (and $x62415 (or $x199 (= ?x62637 (+ (- 1) E2_!5262))) $x62253 $x61239
      $x62334 $x59984))))
    (let (($x59940 (= S1_V6_!5260 S1_V6_!5254)))
    (let
    (($x60052 (or $x197 (= (ite MW_S1_V1 S1_V1_!5249 E1_!5246) E1_!5246))))
    (let
    (($x62833
      (not
      (and $x60052 (or $x199 (= ?x62637 (+ (- 1) E2_!5248))) $x62253 $x61239
      $x62334 $x59984))))
    (let (($x62610 (= S1_V6_!5254 S1_V6_!5275)))
    (let
    (($x62824 (or $x199 (= E2_!5248 (ite MW_S1_V3 S1_V3_!5265 E2_!5262)))))
    (let
    (($x61423
      (not
      (and (or $x197 (= E1_!5246 ?x62798)) $x62824 $x59932 $x62427 $x61066
      $x61439))))
    (let (($x61186 (= S1_V6_!5254 S1_V6_!5269)))
    (let
    (($x62923
      (not
      (and (or $x197 (= E1_!5246 E1_!5263)) (or $x199 (= E2_!5248 E2_!5262))))))
    (let (($x62904 (= S1_V4_!5274 S1_V4_!5268)))
    (let (($x61473 (or $x207 (= (ite MW_S1_V6 S1_V6_!5269 V6_0) V6_0))))
    (let (($x61202 (or $x205 (= (ite MW_S1_V4 S1_V4_!5268 V4_0) V4_0))))
    (let (($x60890 (or $x203 (= (ite MW_S1_V5 S1_V5_!5267 V5_0) V5_0))))
    (let (($x61238 (or $x201 (= (ite MW_S1_V2 S1_V2_!5266 V2_0) V2_0))))
    (let
    (($x62500 (or $x199 (= (ite MW_S1_V3 S1_V3_!5265 E2_!5262) E2_!5262))))
    (let
    (($x61407
      (not
      (and (or $x197 (= ?x60249 (+ (- 1) E1_!5263))) $x62500 $x61238 $x60890
      $x61202 $x61473))))
    (let (($x62792 (= S1_V4_!5274 S1_V4_!5259)))
    (let
    (($x62733
      (or $x207
      (= (ite MW_S1_V6 S1_V6_!5269 V6_0) (ite MW_S1_V6 S1_V6_!5254 V6_0)))))
    (let
    (($x62611
      (or $x205
      (= (ite MW_S1_V4 S1_V4_!5268 V4_0) (ite MW_S1_V4 S1_V4_!5253 V4_0)))))
    (let
    (($x62446
      (or $x203
      (= (ite MW_S1_V5 S1_V5_!5267 V5_0) (ite MW_S1_V5 S1_V5_!5252 V5_0)))))
    (let
    (($x62433
      (or $x201
      (= (ite MW_S1_V2 S1_V2_!5266 V2_0) (ite MW_S1_V2 S1_V2_!5251 V2_0)))))
    (let
    (($x61313
      (and
      (or $x197 (= ?x60249 (+ (- 1) (ite MW_S1_V1 S1_V1_!5249 E1_!5246))))
      (or $x199 (= (ite MW_S1_V3 S1_V3_!5265 E2_!5262) ?x62911)) $x62433
      $x62446 $x62611 $x62733)))
    (let (($x61055 (not $x61313)))
    (let (($x60940 (= S1_V4_!5274 S1_V4_!5253)))
    (let
    (($x62399 (or $x199 (= (ite MW_S1_V3 S1_V3_!5265 E2_!5262) E2_!5248))))
    (let
    (($x62629
      (not
      (and (or $x197 (= ?x60249 (+ (- 1) E1_!5246))) $x62399 $x61238 $x60890
      $x61202 $x61473))))
    (let (($x62811 (= S1_V4_!5253 S1_V4_!5259)))
    (let (($x59883 (or $x207 (= V6_0 (ite MW_S1_V6 S1_V6_!5254 V6_0)))))
    (let (($x62842 (or $x205 (= V4_0 (ite MW_S1_V4 S1_V4_!5253 V4_0)))))
    (let (($x62458 (or $x203 (= V5_0 (ite MW_S1_V5 S1_V5_!5252 V5_0)))))
    (let (($x62467 (or $x201 (= V2_0 (ite MW_S1_V2 S1_V2_!5251 V2_0)))))
    (let
    (($x62582 (or $x197 (= E1_!5246 (ite MW_S1_V1 S1_V1_!5249 E1_!5246)))))
    (let
    (($x62293
      (not
      (and $x62582 (or $x199 (= E2_!5248 ?x62911)) $x62467 $x62458 $x62842
      $x59883))))
    (let
    (($x60050
      (or (not (or (not R_E2_V1) (= E1_!5261 E1_!5246)))
      (= E2_!5262 E2_!5247))))
    (let (($x61044 (= E2_!5248 E2_!5262)))
    (let
    (($x62802 (or (not (or (not R_E2_V1) (= E1_!5246 E1_!5261))) $x61044)))
    (let (($x62612 (= E2_!5248 E2_!5247)))
    (let (($x60921 (= S1_V5_!5267 S1_V5_!5252)))
    (let
    (($x62477
      (or
      (not
      (and (or $x197 (= E1_!5263 E1_!5246)) (or $x199 (= E2_!5262 E2_!5248))))
      $x60921)))
    (let (($x62385 (= E1_!5263 E1_!5261)))
    (let (($x60980 (= E1_!5263 E1_!5246)))
    (let (($x62717 (= E1_!5246 E1_!5261)))
    (let
    (($x61208
      (and (or $x62293 (= S1_V1_!5249 S1_V1_!5255))
      (or $x62923 (= S1_V1_!5249 S1_V1_!5264))
      (or $x61423 (= S1_V1_!5249 S1_V1_!5270))
      (or $x62901 (= S1_V1_!5255 S1_V1_!5264))
      (or $x61055 (= S1_V1_!5270 S1_V1_!5255))
      (or $x61407 (= S1_V1_!5270 S1_V1_!5264))
      (or $x62293 (= S1_V3_!5250 S1_V3_!5256))
      (or $x62923 (= S1_V3_!5250 S1_V3_!5265))
      (or $x61423 (= S1_V3_!5250 S1_V3_!5271))
      (or $x62901 (= S1_V3_!5256 S1_V3_!5265))
      (or $x62686 (= S1_V3_!5256 S1_V3_!5271))
      (or $x61075 (= S1_V3_!5265 S1_V3_!5271))
      (or $x62923 (= S1_V2_!5251 S1_V2_!5266))
      (or $x61423 (= S1_V2_!5251 S1_V2_!5272))
      (or $x62833 (= S1_V2_!5257 S1_V2_!5251))
      (or $x62901 (= S1_V2_!5257 S1_V2_!5266))
      (or $x62686 (= S1_V2_!5257 S1_V2_!5272))
      (or $x61075 (= S1_V2_!5266 S1_V2_!5272)) $x62717 $x60980 $x62385
      (or $x62833 (= S1_V5_!5258 S1_V5_!5252))
      (or $x62901 (= S1_V5_!5258 S1_V5_!5267)) $x62477
      (or $x62629 (= S1_V5_!5273 S1_V5_!5252))
      (or $x61055 (= S1_V5_!5273 S1_V5_!5258))
      (or $x61407 (= S1_V5_!5273 S1_V5_!5267)) $x62612 $x62802 $x60050
      (or $x62293 $x62811) 
      (or $x62923 (= S1_V4_!5253 S1_V4_!5268))
      (or $x62901 (= S1_V4_!5259 S1_V4_!5268)) 
      (or $x62629 $x60940) 
      (or $x61055 $x62792) 
      (or $x61407 $x62904) 
      (or $x62923 $x61186) 
      (or $x61423 $x62610) 
      (or $x62833 $x59940) 
      (or $x62901 $x59884) 
      (or $x62686 $x62816) 
      (or $x61075 $x61112) $x61021 $x61046 $x61024 $x62836 $x62943)))
    (or (not $x61208) (not $x62332)
    (and $x62389 $x61237 $x62774 $x60990 $x60915 $x62927))))))))))))))))))))))))))))))))))))))))))))))))))))))))))))))))))))))))))))))))))))))))))))))))))
 (let (($x56 (and W_S1_V6 R_E1_V6)))
 (let (($x54 (and W_S1_V4 R_E1_V4)))
 (let (($x50 (and W_S1_V2 R_E1_V2)))
 (let
 (($x66
   (or (and W_S1_V1 R_S1_V1) 
   (and W_S1_V3 R_S1_V3) (and W_S1_V2 R_S1_V2) R_S1_V5 
   (and W_S1_V4 R_S1_V4) (and W_S1_V6 R_S1_V6))))
 (let (($x68 (= DISJ_W_S1_R_S1 (not $x66))))
 (let (($x24 (and W_S1_V6 R_E2_V6)))
 (let (($x21 (and W_S1_V4 R_E2_V4)))
 (let (($x16 (and W_S1_V2 R_E2_V2)))
 (let (($x10 (and W_S1_V1 R_E2_V1)))
 (let (($x115 (not R_E1_V3)))
 (let (($x113 (not R_E1_V1)))
 (let (($x130 (not R_E2_V3)))
 (and $x130 $x113 $x115 W_S1_V5
 (= DISJ_W_S1_R_E2 (not (or $x10 $x16 R_E2_V5 $x21 $x24))) $x68
 (= DISJ_W_S1_R_E1 (not (or $x50 R_E1_V5 $x54 $x56))) $x62538)))))))))))))))
(assert (not (and (not W_S1_V2) DISJ_W_S1_R_S1)))
(assert (not (and (not W_S1_V4) DISJ_W_S1_R_S1)))
(assert (not (and (not R_S1_V3) DISJ_W_S1_R_S1)))
(assert (not (and (not R_S1_V1) DISJ_W_S1_R_S1)))
(assert (not (and (not W_S1_V1) (not W_S1_V2))))
(assert (not (and (not W_S1_V3) (not W_S1_V4))))
(assert
 (let (($x59799 (not W_S1_V4)))
 (let (($x59796 (not W_S1_V2)))
 (let (($x199 (not R_S1_V3)))
 (let (($x197 (not R_S1_V1)))
 (let (($x63264 (and $x197 $x199 $x59796 $x59799))) (not $x63264)))))))
(check-sat)
(exit)

